1058
1098
990
1073
1117
1046
1046
1046
1046
1090
1037
1037
1037
1070
1015
972
953
972
972
972
972
972
972
974
936
979
979
1033
1002
1016
1006
1016
1041
1041
940
1047
1047
979
924
1075
993
993
993
993
993
993
988
930
930
930
858
858
858
973
986
1019
1019
1033
1033
1005
1050
1025
1025
1023
981
1023
1023
1017
1020
1020
1014
930
930
984
984
984
984
1042
1051
1010
1010
1010
980
980
963
963
1015
962
962
1032
1005
960
973
968
962
891
955
920
955
911
